
Gurobi 7.0.2 (linux64, Python) logging started Tue Apr 25 13:48:30 2017


Gurobi 7.0.2 (linux64, Python) logging started Tue Apr 25 13:48:42 2017


Gurobi 7.0.2 (linux64, Python) logging started Tue Apr 25 14:04:58 2017


Gurobi 7.0.2 (linux64, Python) logging started Tue Apr 25 15:37:06 2017


Gurobi 7.0.2 (linux64, Python) logging started Mon May  1 14:40:13 2017


Gurobi 7.0.2 (linux64, Python) logging started Mon May  8 13:03:50 2017


Gurobi 7.0.2 (linux64, Python) logging started Mon May  8 13:06:57 2017


Gurobi 7.0.2 (linux64, Python) logging started Mon May  8 13:07:06 2017


Gurobi 7.0.2 (linux64, Python) logging started Mon May  8 13:07:46 2017


Gurobi 7.0.2 (linux64, Python) logging started Mon May  8 14:46:05 2017


Gurobi 7.0.2 (linux64, Python) logging started Wed May 10 17:14:36 2017


Gurobi 7.0.2 (linux64, Python) logging started Wed May 10 17:14:57 2017


Gurobi 7.0.2 (linux64, Python) logging started Wed May 10 17:15:17 2017


Gurobi 7.0.2 (linux64, Python) logging started Thu May 11 14:53:25 2017


Gurobi 7.0.2 (linux64, Python) logging started Thu May 11 14:54:27 2017


Gurobi 7.0.2 (linux64, Python) logging started Thu May 11 15:30:10 2017


Gurobi 7.0.2 (linux64, Python) logging started Thu May 11 15:30:15 2017


Gurobi 7.0.2 (linux64, Python) logging started Thu May 11 16:55:20 2017


Gurobi 7.0.2 (linux64, Python) logging started Thu May 11 17:07:38 2017


Gurobi 7.0.2 (linux64, Python) logging started Fri May 12 14:06:07 2017


Gurobi 7.0.2 (linux64, Python) logging started Fri May 12 14:06:14 2017


Gurobi 7.0.2 (linux64, Python) logging started Fri May 12 15:38:03 2017


Gurobi 7.0.2 (linux64, Python) logging started Fri May 12 15:51:14 2017


Gurobi 7.0.2 (linux64, Python) logging started Fri May 12 15:53:16 2017

